3 
4  55 
5  10 24 31 39 46 54 
6  01 08 16 23 31 38 46 53 
7  01 08 16 23 31 38 46 53 
8  01 08 16 23 31 38 46 53 
9  01 08 16 23 31 38 46 53 
10  01 08 16 23 31 38 46 53 
11  01 08 16 23 31 38 46 53 
12  01 08 16 23 31 38 46 53 
13  01 08 16 23 31 38 46 53 
14  01 08 16 23 30 37 46 53 
15  01 08 16 23 31 38 46 53 
16  01 08 16 23 31 38 46 53 
17  01 08 16 23 31 38 46 53 
18  01 08 16 23 30 37 45 52 59 
19  07 14 22 29 37 44 59 
20  14 29 46 
21  01 16 31 46 
22  01 16 31 
23 
